400
125 125
1 100 999
2 100 107
3 100 949
4 100 450
5 100 932
6 100 337
7 100 354
8 99 842
9 99 422
10 99 564
11 99 854
12 99 264
13 98 34
14 98 49
15 98 116
16 97 277
17 97 189
18 97 92
19 97 265
20 97 487
21 96 228
22 96 92
23 96 728
24 95 25
25 95 645
26 95 700
27 95 276
28 95 631
29 95 909
30 95 982
31 95 638
32 95 388
33 94 658
34 94 715
35 94 308
36 94 756
37 94 440
38 94 586
39 93 141
40 93 335
41 93 565
42 93 513
43 92 304
44 92 929
45 91 538
46 91 710
47 91 201
48 91 828
49 90 94
50 90 903
51 90 193
52 90 479
53 90 961
54 89 505
55 89 758
56 89 184
57 89 880
58 88 342
59 88 410
60 88 28
61 88 141
62 87 887
63 87 312
64 86 167
65 86 834
66 86 372
67 86 91
68 85 679
69 85 335
70 85 902
71 85 274
72 85 287
73 84 215
74 84 327
75 84 790
76 83 253
77 83 858
78 83 484
79 83 140
80 83 584
81 83 63
82 83 500
83 83 985
84 83 358
85 83 364
86 82 45
87 82 431
88 82 470
89 82 326
90 82 223
91 82 289
92 82 187
93 81 413
94 81 932
95 81 379
96 81 792
97 80 576
98 80 643
99 80 475
100 80 597
101 80 292
102 79 534
103 79 948
104 79 40
105 79 728
106 79 539
107 78 687
108 78 592
109 77 763
110 77 696
111 77 434
112 77 845
113 77 855
114 76 849
115 76 213
116 76 963
117 76 596
118 76 783
119 75 813
120 75 61
121 74 859
122 74 20
123 73 940
124 73 533
125 73 329
126 73 31
127 73 72
128 72 842
129 72 839
130 72 201
131 71 154
132 71 413
133 70 775
134 70 378
135 70 926
136 70 262
137 70 444
138 70 349
139 70 445
140 69 379
141 69 879
142 69 840
143 69 449
144 68 54
145 68 809
146 68 746
147 68 32
148 68 520
149 68 453
150 68 555
151 67 804
152 67 446
153 67 258
154 67 469
155 66 146
156 66 993
157 66 102
158 66 160
159 66 890
160 65 218
161 65 686
162 65 719
163 65 822
164 65 534
165 64 322
166 64 667
167 64 54
168 64 484
169 64 871
170 64 817
171 64 457
172 63 670
173 62 327
174 62 905
175 62 153
176 62 214
177 61 423
178 61 817
179 61 481
180 61 186
181 61 330
182 61 916
183 60 37
184 60 145
185 60 356
186 59 489
187 59 936
188 59 83
189 59 510
190 59 248
191 58 224
192 58 943
193 58 512
194 58 313
195 57 190
196 57 297
197 56 658
198 56 498
199 56 815
200 56 852
201 55 357
202 55 636
203 55 907
204 55 690
205 54 973
206 54 869
207 54 140
208 54 581
209 54 510
210 53 420
211 53 488
212 53 913
213 52 191
214 52 490
215 52 410
216 52 904
217 51 163
218 51 963
219 50 37
220 50 824
221 50 706
222 50 822
223 50 571
224 50 925
225 49 808
226 49 506
227 49 414
228 49 196
229 49 698
230 49 81
231 48 394
232 48 935
233 48 802
234 48 116
235 47 959
236 47 295
237 47 449
238 47 644
239 46 732
240 46 921
241 46 313
242 45 208
243 45 968
244 45 54
245 45 35
246 44 344
247 44 804
248 43 188
249 43 51
250 43 793
251 43 661
252 43 136
253 43 426
254 43 42
255 43 803
256 42 24
257 42 48
258 41 901
259 41 155
260 41 706
261 41 638
262 41 523
263 40 364
264 40 998
265 40 504
266 40 865
267 40 520
268 40 363
269 39 206
270 39 912
271 39 964
272 39 201
273 39 885
274 39 868
275 38 240
276 38 336
277 37 163
278 37 526
279 37 792
280 36 753
281 36 704
282 36 133
283 36 553
284 36 906
285 36 315
286 36 569
287 35 307
288 35 174
289 35 657
290 35 543
291 35 190
292 34 853
293 34 179
294 34 664
295 33 411
296 33 984
297 33 271
298 33 108
299 32 457
300 32 783
301 32 248
302 32 118
303 32 506
304 32 88
305 32 687
306 31 670
307 31 157
308 31 625
309 31 929
310 31 891
311 30 733
312 30 162
313 30 114
314 30 973
315 30 670
316 29 951
317 29 250
318 29 150
319 29 16
320 28 538
321 28 27
322 28 328
323 28 468
324 28 850
325 28 887
326 28 162
327 28 97
328 28 512
329 27 935
330 27 848
331 26 961
332 26 632
333 26 166
334 26 621
335 26 447
336 25 931
337 25 88
338 25 348
339 25 473
340 25 30
341 25 743
342 25 968
343 25 865
344 24 614
345 24 136
346 24 814
347 24 440
348 24 286
349 23 546
350 22 216
351 22 672
352 22 817
353 22 110
354 22 670
355 22 744
356 21 712
357 21 29
358 21 476
359 21 638
360 21 365
361 20 826
362 20 287
363 20 247
364 20 776
365 19 362
366 19 42
367 18 117
368 17 907
369 17 801
370 17 432
371 17 637
372 17 211
373 17 768
374 17 140
375 17 542
376 17 704
377 17 659
378 16 223
379 16 104
380 16 776
381 16 648
382 16 88
383 16 270
384 16 951
385 16 446
386 16 107
387 15 326
388 15 567
389 15 664
390 14 295
391 14 708
392 14 129
393 14 996
394 13 416
395 13 135
396 13 202
397 12 60
398 12 392
399 12 825
400 12 286
